(set-info :smt-lib-version 2.6)
(set-logic UFNIA)
(set-info :source |
Generated by: Geoff Sutcliffe
Generated on: 2026-03-11
Generator: TPTPWorld
Application: Benchmarking automated theorem provers
Time limit: 120.0

These benchmarks are translations from the TPTP Library (Thousands of
Problems for Theorem Provers), see http://www.cs.miami.edu/~tptp/

The TPTP is maintained by Geoff Sutcliffe, and he contributed this
selection of benchmarks to SMT-LIB.  They were exported from the
v9.2.1 realease of TPTP.
|)
(set-info :category "industrial")
(set-info :status "unknown")
; SZS status Success
(declare-sort $$unsorted 0)
(declare-sort tptp.uni 0)
(declare-sort tptp.ty 0)
(declare-fun tptp.sort (tptp.ty tptp.uni) Bool)
(declare-fun tptp.witness (tptp.ty) tptp.uni)
(assert (forall ((A tptp.ty)) (tptp.sort A (tptp.witness A))))
(declare-fun tptp.int () tptp.ty)
(declare-fun tptp.real () tptp.ty)
(declare-sort tptp.bool 0)
(declare-fun tptp.bool1 () tptp.ty)
(declare-fun tptp.true () tptp.bool)
(declare-fun tptp.false () tptp.bool)
(declare-fun tptp.match_bool (tptp.ty tptp.bool tptp.uni tptp.uni) tptp.uni)
(assert (forall ((A tptp.ty) (X tptp.bool) (X1 tptp.uni) (X2 tptp.uni)) (tptp.sort A (tptp.match_bool A X X1 X2))))
(assert (forall ((A tptp.ty) (Z tptp.uni) (Z1 tptp.uni)) (=> (tptp.sort A Z) (= (tptp.match_bool A tptp.true Z Z1) Z))))
(assert (forall ((A tptp.ty) (Z tptp.uni) (Z1 tptp.uni)) (=> (tptp.sort A Z1) (= (tptp.match_bool A tptp.false Z Z1) Z1))))
(assert (not (= tptp.true tptp.false)))
(assert (forall ((U tptp.bool)) (or (= U tptp.true) (= U tptp.false))))
(declare-sort tptp.tuple0 0)
(declare-fun tptp.tuple01 () tptp.ty)
(declare-fun tptp.tuple02 () tptp.tuple0)
(assert (forall ((U tptp.tuple0)) (= U tptp.tuple02)))
(declare-fun tptp.qtmark () tptp.ty)
(assert (forall ((X Int) (Y Int) (Z Int)) (=> (<= X Y) (=> (<= 0 Z) (<= (* X Z) (* Y Z))))))
(declare-fun tptp.list (tptp.ty) tptp.ty)
(declare-fun tptp.nil (tptp.ty) tptp.uni)
(assert (forall ((A tptp.ty)) (tptp.sort (tptp.list A) (tptp.nil A))))
(declare-fun tptp.cons (tptp.ty tptp.uni tptp.uni) tptp.uni)
(assert (forall ((A tptp.ty) (X tptp.uni) (X1 tptp.uni)) (tptp.sort (tptp.list A) (tptp.cons A X X1))))
(declare-fun tptp.match_list (tptp.ty tptp.ty tptp.uni tptp.uni tptp.uni) tptp.uni)
(assert (forall ((A tptp.ty) (A1 tptp.ty) (X tptp.uni) (X1 tptp.uni) (X2 tptp.uni)) (tptp.sort A1 (tptp.match_list A1 A X X1 X2))))
(assert (forall ((A tptp.ty) (A1 tptp.ty) (Z tptp.uni) (Z1 tptp.uni)) (=> (tptp.sort A1 Z) (= (tptp.match_list A1 A (tptp.nil A) Z Z1) Z))))
(assert (forall ((A tptp.ty) (A1 tptp.ty) (Z tptp.uni) (Z1 tptp.uni) (U tptp.uni) (U1 tptp.uni)) (=> (tptp.sort A1 Z1) (= (tptp.match_list A1 A (tptp.cons A U U1) Z Z1) Z1))))
(assert (forall ((A tptp.ty) (V tptp.uni) (V1 tptp.uni)) (not (= (tptp.nil A) (tptp.cons A V V1)))))
(declare-fun tptp.cons_proj_1 (tptp.ty tptp.uni) tptp.uni)
(assert (forall ((A tptp.ty) (X tptp.uni)) (tptp.sort A (tptp.cons_proj_1 A X))))
(assert (forall ((A tptp.ty) (U tptp.uni) (U1 tptp.uni)) (=> (tptp.sort A U) (= (tptp.cons_proj_1 A (tptp.cons A U U1)) U))))
(declare-fun tptp.cons_proj_2 (tptp.ty tptp.uni) tptp.uni)
(assert (forall ((A tptp.ty) (X tptp.uni)) (tptp.sort (tptp.list A) (tptp.cons_proj_2 A X))))
(assert (forall ((A tptp.ty) (U tptp.uni) (U1 tptp.uni)) (= (tptp.cons_proj_2 A (tptp.cons A U U1)) U1)))
(assert (forall ((A tptp.ty) (U tptp.uni)) (or (= U (tptp.nil A)) (= U (tptp.cons A (tptp.cons_proj_1 A U) (tptp.cons_proj_2 A U))))))
(declare-fun tptp.length (tptp.ty tptp.uni) Int)
(assert (forall ((A tptp.ty)) (and (= (tptp.length A (tptp.nil A)) 0) (forall ((X tptp.uni) (X1 tptp.uni)) (= (tptp.length A (tptp.cons A X X1)) (+ 1 (tptp.length A X1)))))))
(assert (forall ((A tptp.ty) (L tptp.uni)) (<= 0 (tptp.length A L))))
(assert (forall ((A tptp.ty) (L tptp.uni)) (= (= (tptp.length A L) 0) (= L (tptp.nil A)))))
(declare-fun tptp.infix_plpl (tptp.ty tptp.uni tptp.uni) tptp.uni)
(assert (forall ((A tptp.ty) (X tptp.uni) (X1 tptp.uni)) (tptp.sort (tptp.list A) (tptp.infix_plpl A X X1))))
(assert (forall ((A tptp.ty) (L2 tptp.uni)) (and (= (tptp.infix_plpl A (tptp.nil A) L2) L2) (forall ((X tptp.uni) (X1 tptp.uni)) (= (tptp.infix_plpl A (tptp.cons A X X1) L2) (tptp.cons A X (tptp.infix_plpl A X1 L2)))))))
(assert (forall ((A tptp.ty) (L1 tptp.uni) (L2 tptp.uni) (L3 tptp.uni)) (= (tptp.infix_plpl A L1 (tptp.infix_plpl A L2 L3)) (tptp.infix_plpl A (tptp.infix_plpl A L1 L2) L3))))
(assert (forall ((A tptp.ty) (L tptp.uni)) (= (tptp.infix_plpl A L (tptp.nil A)) L)))
(assert (forall ((A tptp.ty) (L1 tptp.uni) (L2 tptp.uni)) (= (tptp.length A (tptp.infix_plpl A L1 L2)) (+ (tptp.length A L1) (tptp.length A L2)))))
(declare-fun tptp.mem (tptp.ty tptp.uni tptp.uni) Bool)
(assert (forall ((A tptp.ty) (X tptp.uni)) (=> (tptp.sort A X) (and (not (tptp.mem A X (tptp.nil A))) (forall ((X1 tptp.uni) (X2 tptp.uni)) (=> (tptp.sort A X1) (= (tptp.mem A X (tptp.cons A X1 X2)) (or (= X X1) (tptp.mem A X X2)))))))))
(assert (forall ((A tptp.ty) (X tptp.uni) (L1 tptp.uni) (L2 tptp.uni)) (= (tptp.mem A X (tptp.infix_plpl A L1 L2)) (or (tptp.mem A X L1) (tptp.mem A X L2)))))
(assert (forall ((A tptp.ty) (X tptp.uni) (L tptp.uni)) (=> (tptp.mem A X L) (exists ((L1 tptp.uni) (L2 tptp.uni)) (let ((_let_1 (tptp.list A))) (and (tptp.sort _let_1 L1) (tptp.sort _let_1 L2) (= L (tptp.infix_plpl A L1 (tptp.cons A X L2)))))))))
(declare-fun tptp.option (tptp.ty) tptp.ty)
(declare-fun tptp.none (tptp.ty) tptp.uni)
(assert (forall ((A tptp.ty)) (tptp.sort (tptp.option A) (tptp.none A))))
(declare-fun tptp.some (tptp.ty tptp.uni) tptp.uni)
(assert (forall ((A tptp.ty) (X tptp.uni)) (tptp.sort (tptp.option A) (tptp.some A X))))
(declare-fun tptp.match_option (tptp.ty tptp.ty tptp.uni tptp.uni tptp.uni) tptp.uni)
(assert (forall ((A tptp.ty) (A1 tptp.ty) (X tptp.uni) (X1 tptp.uni) (X2 tptp.uni)) (tptp.sort A1 (tptp.match_option A1 A X X1 X2))))
(assert (forall ((A tptp.ty) (A1 tptp.ty) (Z tptp.uni) (Z1 tptp.uni)) (=> (tptp.sort A1 Z) (= (tptp.match_option A1 A (tptp.none A) Z Z1) Z))))
(assert (forall ((A tptp.ty) (A1 tptp.ty) (Z tptp.uni) (Z1 tptp.uni) (U tptp.uni)) (=> (tptp.sort A1 Z1) (= (tptp.match_option A1 A (tptp.some A U) Z Z1) Z1))))
(assert (forall ((A tptp.ty) (V tptp.uni)) (not (= (tptp.none A) (tptp.some A V)))))
(declare-fun tptp.some_proj_1 (tptp.ty tptp.uni) tptp.uni)
(assert (forall ((A tptp.ty) (X tptp.uni)) (tptp.sort A (tptp.some_proj_1 A X))))
(assert (forall ((A tptp.ty) (U tptp.uni)) (=> (tptp.sort A U) (= (tptp.some_proj_1 A (tptp.some A U)) U))))
(assert (forall ((A tptp.ty) (U tptp.uni)) (=> (tptp.sort (tptp.option A) U) (or (= U (tptp.none A)) (= U (tptp.some A (tptp.some_proj_1 A U)))))))
(declare-fun tptp.nth (tptp.ty Int tptp.uni) tptp.uni)
(assert (forall ((A tptp.ty) (X Int) (X1 tptp.uni)) (tptp.sort (tptp.option A) (tptp.nth A X X1))))
(assert (forall ((A tptp.ty) (N Int)) (and (= (tptp.nth A N (tptp.nil A)) (tptp.none A)) (forall ((X tptp.uni) (X1 tptp.uni)) (let ((_let_1 (tptp.nth A N (tptp.cons A X X1)))) (let ((_let_2 (= N 0))) (and (=> _let_2 (= _let_1 (tptp.some A X))) (=> (not _let_2) (= _let_1 (tptp.nth A (- N 1) X1))))))))))
(assert (forall ((A tptp.ty) (L tptp.uni) (I Int)) (=> (< I 0) (= (tptp.nth A I L) (tptp.none A)))))
(assert (forall ((A tptp.ty) (L tptp.uni) (I Int)) (=> (<= (tptp.length A L) I) (= (tptp.nth A I L) (tptp.none A)))))
(assert (forall ((A tptp.ty) (L tptp.uni) (I Int)) (=> (= (tptp.nth A I L) (tptp.none A)) (or (< I 0) (<= (tptp.length A L) I)))))
(assert (forall ((A tptp.ty) (L1 tptp.uni) (L2 tptp.uni) (I Int)) (=> (< I (tptp.length A L1)) (= (tptp.nth A I (tptp.infix_plpl A L1 L2)) (tptp.nth A I L1)))))
(assert (forall ((A tptp.ty) (L1 tptp.uni) (L2 tptp.uni) (I Int)) (let ((_let_1 (tptp.length A L1))) (=> (<= _let_1 I) (= (tptp.nth A I (tptp.infix_plpl A L1 L2)) (tptp.nth A (- I _let_1) L2))))))
(declare-fun tptp.pal (tptp.ty tptp.uni Int) Bool)
(assert (forall ((A tptp.ty) (X tptp.uni) (N Int)) (= (tptp.pal A X N) (forall ((I Int)) (=> (and (<= 0 I) (< I N)) (= (tptp.nth A I X) (tptp.nth A (- (- N 1) I) X)))))))
(declare-sort tptp.a 0)
(declare-fun tptp.a1 () tptp.ty)
(declare-fun tptp.t2tb (tptp.a) tptp.uni)
(assert (forall ((X tptp.a)) (tptp.sort tptp.a1 (tptp.t2tb X))))
(declare-fun tptp.tb2t (tptp.uni) tptp.a)
(assert (forall ((I tptp.a)) (= (tptp.tb2t (tptp.t2tb I)) I)))
(assert (forall ((J tptp.uni)) (=> (tptp.sort tptp.a1 J) (= (tptp.t2tb (tptp.tb2t J)) J))))
(declare-sort tptp.option_a1 0)
(declare-fun tptp.t2tb4 (tptp.option_a1) tptp.uni)
(assert (forall ((X tptp.option_a1)) (tptp.sort (tptp.option tptp.a1) (tptp.t2tb4 X))))
(declare-fun tptp.tb2t4 (tptp.uni) tptp.option_a1)
(assert (forall ((I tptp.option_a1)) (= (tptp.tb2t4 (tptp.t2tb4 I)) I)))
(assert (forall ((J tptp.uni)) (=> (tptp.sort (tptp.option tptp.a1) J) (= (tptp.t2tb4 (tptp.tb2t4 J)) J))))
(declare-sort tptp.list_a1 0)
(declare-fun tptp.t2tb3 (tptp.list_a1) tptp.uni)
(assert (forall ((X tptp.list_a1)) (tptp.sort (tptp.list tptp.a1) (tptp.t2tb3 X))))
(declare-fun tptp.tb2t3 (tptp.uni) tptp.list_a1)
(assert (forall ((I tptp.list_a1)) (= (tptp.tb2t3 (tptp.t2tb3 I)) I)))
(assert (forall ((J tptp.uni)) (= (tptp.t2tb3 (tptp.tb2t3 J)) J)))
(assert (not (forall ((X tptp.list_a1) (Y tptp.list_a1)) (=> (<= (tptp.length tptp.a1 (tptp.t2tb3 Y)) (tptp.length tptp.a1 (tptp.t2tb3 X))) (forall ((X1 tptp.a) (X2 tptp.list_a1)) (=> (= Y (tptp.tb2t3 (tptp.cons tptp.a1 (tptp.t2tb X1) (tptp.t2tb3 X2)))) (forall ((X3 tptp.a) (X4 tptp.list_a1)) (=> (= X2 (tptp.tb2t3 (tptp.cons tptp.a1 (tptp.t2tb X3) (tptp.t2tb3 X4)))) (forall ((X5 tptp.a) (X6 tptp.list_a1)) (let ((_let_1 (tptp.t2tb3 X6))) (=> (= X (tptp.tb2t3 (tptp.cons tptp.a1 (tptp.t2tb X5) _let_1))) (=> (<= (tptp.length tptp.a1 (tptp.t2tb3 X4)) (tptp.length tptp.a1 _let_1)) (forall ((Result tptp.list_a1)) (=> (and (exists ((X0 tptp.list_a1)) (let ((_let_1 (tptp.t2tb3 X0))) (and (= (tptp.length tptp.a1 _let_1) (tptp.length tptp.a1 (tptp.t2tb3 X4))) (= X6 (tptp.tb2t3 (tptp.infix_plpl tptp.a1 _let_1 (tptp.t2tb3 Result))))))) (tptp.pal tptp.a1 (tptp.t2tb3 X6) (tptp.length tptp.a1 (tptp.t2tb3 X4)))) (forall ((X11 tptp.a) (Xs tptp.list_a1)) (let ((_let_1 (tptp.t2tb X11))) (=> (= Result (tptp.tb2t3 (tptp.cons tptp.a1 _let_1 (tptp.t2tb3 Xs)))) (=> (= (tptp.tb2t4 (tptp.nth tptp.a1 (- (tptp.length tptp.a1 (tptp.t2tb3 Y)) 1) (tptp.t2tb3 X))) (tptp.tb2t4 (tptp.some tptp.a1 _let_1))) (=> (= X5 X11) (exists ((X0 tptp.list_a1)) (let ((_let_1 (tptp.t2tb3 X0))) (and (= (tptp.length tptp.a1 _let_1) (tptp.length tptp.a1 (tptp.t2tb3 Y))) (= X (tptp.tb2t3 (tptp.infix_plpl tptp.a1 _let_1 (tptp.t2tb3 Xs))))))))))))))))))))))))))
(check-sat)
